198 19714
1 40 41 57 58 42 43 44 55 56 59 60 67 70 74 75 65 81 76 77 64 78 91 80 79 92 113 107 106 112 116 117 118 123 138 140 147 148 162 161 153 152 149 145 146 143 142 141 134 132 133 130 127 170 128 171 182 177 181 183 188 191 190 166 165 164 163 151 150 144 135 136 129 131 126 125 169 124 120 119 111 110 109 108 167 168 176 173 174 175 178 180 184 185 187 192 193 186 196 197 198 195 194 179 189 172 137 160 159 158 157 156 155 154 139 121 122 115 114 105 104 103 102 93 101 94 95 96 90 89 97 98 88 82 62 53 46 52 39 47 51 50 63 49 48 35 25 21 20 19 18 17 16 15 14 29 30 28 23 22 24 26 27 34 33 36 32 37 31 38 45 54 61 66 83 73 68 72 84 87 99 100 86 85 71 69 13 12 11 10 9 8 5 4 3 6 7 2 
